NAME : n40w80.002.498.tour
COMMENT : Length = 498
COMMENT : Found by LKH [Keld Helsgaun] Tue May  2 05:46:14 2017
TYPE : TOUR
DIMENSION : 41
TOUR_SECTION
1
31
25
2
38
7
11
16
12
15
14
27
9
36
19
18
24
20
5
28
22
40
17
13
4
39
3
8
26
33
34
21
23
35
37
29
6
30
10
32
41
-1
EOF
